# Cost: 95

# Tail Head Net
40 20 1
60 40 1
80 60 1
100 80 1
120 100 1
140 120 1
160 140 1
180 160 1
200 180 1
220 200 1
240 220 1
260 240 1
279 280 1
280 260 1
281 681 1
298 299 1
299 279 1
681 682 1
682 683 1
683 684 1
684 685 1
685 686 1
686 687 1
687 688 1
688 689 1
689 690 1
690 691 1
691 692 1
692 693 1
693 694 1
694 695 1
695 696 1
696 697 1
697 698 1
698 298 1
181 182 2
182 202 2
202 222 2
222 242 2
242 262 2
262 282 2
282 302 2
302 322 2
322 342 2
342 341 2
342 343 2
343 363 2
363 364 2
364 365 2
365 385 2
385 386 2
386 387 2
387 388 2
388 389 2
389 390 2
390 391 2
391 392 2
392 393 2
393 394 2
394 395 2
395 396 2
396 397 2
397 398 2
398 399 2
5 25 3
25 45 3
45 65 3
65 85 3
85 105 3
105 125 3
125 145 3
145 165 3
165 185 3
185 205 3
205 225 3
225 245 3
245 246 3
246 247 3
247 248 3
248 249 3
249 269 3
269 289 3
289 290 3
290 291 3
291 311 3
311 312 3
312 332 3
332 333 3
333 334 3
334 335 3
335 336 3
336 337 3
337 338 3
338 339 3
339 340 3
